c clasp version 2.1.1
c Reading from p12.cnf
c Solving...
s SATISFIABLE

c Models        : 1+    
c Time          : 0.894s (Solving: 0.21s 1st Model: 0.21s Unsat: 0.00s)
c CPU Time      : 0.890s
c Choices       : 5908
c Conflicts     : 816
c Restarts      : 1      (Average: 816.00 Last: 228)

c Variables     : 193089 (Eliminated: 60329 Frozen:    0)
c Constraints   : 228607 (Binary: 63.6% Ternary: 35.1% Other:  1.2%)
c Lemmas        : 816    (Binary:  0.7% Ternary:  2.7% Other: 96.6%)
c   Conflict    : 816    (Average Length: 68.2) 
c   Loop        : 0      (Average Length: 0.0) 
c   Other       : 0      (Average Length: 0.0)
c   Deleted     : 0     
